p cnf 200 1110
-101 -7 0
-101 16 0
-101 82 0
-101 -86 0
-101 2 0
-101 -50 0
-101 45 0
-101 11 0
-101 -76 0
-101 -66 0
101 7 -16 -82 86 -2 50 -45 -11 76 66 0
-102 28 0
-102 21 0
-102 42 0
-102 -13 0
-102 57 0
-102 35 0
-102 -4 0
-102 -7 0
-102 -53 0
-102 -41 0
102 -28 -21 -42 13 -57 -35 4 7 53 41 0
-103 -98 0
-103 21 0
-103 -31 0
-103 -87 0
-103 57 0
-103 16 0
-103 -45 0
-103 -72 0
-103 -52 0
-103 -37 0
103 98 -21 31 87 -57 -16 45 72 52 37 0
-104 16 0
-104 96 0
-104 -92 0
-104 80 0
-104 90 0
-104 -32 0
-104 -26 0
-104 -18 0
-104 -11 0
-104 71 0
104 -16 -96 92 -80 -90 32 26 18 11 -71 0
-105 62 0
-105 -81 0
-105 -30 0
-105 -4 0
-105 -28 0
-105 96 0
-105 66 0
-105 -24 0
-105 -63 0
-105 -89 0
105 -62 81 30 4 28 -96 -66 24 63 89 0
-106 -88 0
-106 -67 0
-106 38 0
-106 66 0
-106 -5 0
-106 3 0
-106 20 0
-106 93 0
-106 -14 0
-106 -34 0
106 88 67 -38 -66 5 -3 -20 -93 14 34 0
-107 29 0
-107 96 0
-107 17 0
-107 -39 0
-107 41 0
-107 -20 0
-107 -35 0
-107 -93 0
-107 -98 0
-107 19 0
107 -29 -96 -17 39 -41 20 35 93 98 -19 0
-108 -58 0
-108 -37 0
-108 -51 0
-108 -52 0
-108 -90 0
-108 -74 0
-108 56 0
-108 -36 0
-108 61 0
-108 48 0
108 58 37 51 52 90 74 -56 36 -61 -48 0
-109 98 0
-109 48 0
-109 100 0
-109 91 0
-109 -78 0
-109 70 0
-109 -53 0
-109 -23 0
-109 -75 0
-109 -46 0
109 -98 -48 -100 -91 78 -70 53 23 75 46 0
-110 -41 0
-110 99 0
-110 82 0
-110 -4 0
-110 -9 0
-110 43 0
-110 -54 0
-110 46 0
-110 -74 0
-110 -93 0
110 41 -99 -82 4 9 -43 54 -46 74 93 0
101 102 103 104 105 106 107 108 109 110 0
-111 25 0
-111 45 0
-111 68 0
-111 -100 0
-111 -60 0
-111 42 0
-111 -38 0
-111 85 0
-111 57 0
-111 67 0
111 -25 -45 -68 100 60 -42 38 -85 -57 -67 0
-112 -49 0
-112 -87 0
-112 -80 0
-112 84 0
-112 47 0
-112 85 0
-112 14 0
-112 -26 0
-112 65 0
-112 30 0
112 49 87 80 -84 -47 -85 -14 26 -65 -30 0
-113 75 0
-113 62 0
-113 26 0
-113 87 0
-113 23 0
-113 -76 0
-113 -84 0
-113 -24 0
-113 67 0
-113 -31 0
113 -75 -62 -26 -87 -23 76 84 24 -67 31 0
-114 31 0
-114 -87 0
-114 55 0
-114 -6 0
-114 -7 0
-114 -74 0
-114 -99 0
-114 -38 0
-114 46 0
-114 40 0
114 -31 87 -55 6 7 74 99 38 -46 -40 0
-115 -96 0
-115 4 0
-115 -16 0
-115 -92 0
-115 -10 0
-115 1 0
-115 73 0
-115 95 0
-115 -81 0
-115 21 0
115 96 -4 16 92 10 -1 -73 -95 81 -21 0
-116 87 0
-116 -52 0
-116 -34 0
-116 86 0
-116 -30 0
-116 55 0
-116 -32 0
-116 12 0
-116 -22 0
-116 -40 0
116 -87 52 34 -86 30 -55 32 -12 22 40 0
-117 61 0
-117 48 0
-117 -5 0
-117 -71 0
-117 -56 0
-117 75 0
-117 83 0
-117 -60 0
-117 58 0
-117 -70 0
117 -61 -48 5 71 56 -75 -83 60 -58 70 0
-118 -55 0
-118 -45 0
-118 -3 0
-118 -93 0
-118 -85 0
-118 -80 0
-118 60 0
-118 42 0
-118 64 0
-118 -28 0
118 55 45 3 93 85 80 -60 -42 -64 28 0
-119 -52 0
-119 -5 0
-119 -23 0
-119 41 0
-119 89 0
-119 98 0
-119 -45 0
-119 46 0
-119 73 0
-119 -96 0
119 52 5 23 -41 -89 -98 45 -46 -73 96 0
-120 -6 0
-120 -63 0
-120 27 0
-120 -70 0
-120 -37 0
-120 69 0
-120 -41 0
-120 21 0
-120 -66 0
-120 -55 0
120 6 63 -27 70 37 -69 41 -21 66 55 0
111 112 113 114 115 116 117 118 119 120 0
-121 -35 0
-121 -63 0
-121 -44 0
-121 81 0
-121 -32 0
-121 38 0
-121 -61 0
-121 41 0
-121 -53 0
-121 -88 0
121 35 63 44 -81 32 -38 61 -41 53 88 0
-122 22 0
-122 18 0
-122 -65 0
-122 41 0
-122 -33 0
-122 -29 0
-122 87 0
-122 3 0
-122 72 0
-122 -89 0
122 -22 -18 65 -41 33 29 -87 -3 -72 89 0
-123 -27 0
-123 14 0
-123 19 0
-123 -2 0
-123 -93 0
-123 31 0
-123 -65 0
-123 -87 0
-123 -82 0
-123 -75 0
123 27 -14 -19 2 93 -31 65 87 82 75 0
-124 -78 0
-124 -89 0
-124 83 0
-124 59 0
-124 -71 0
-124 -75 0
-124 99 0
-124 -6 0
-124 -74 0
-124 -53 0
124 78 89 -83 -59 71 75 -99 6 74 53 0
-125 51 0
-125 -44 0
-125 -61 0
-125 -3 0
-125 56 0
-125 18 0
-125 -52 0
-125 33 0
-125 -48 0
-125 13 0
125 -51 44 61 3 -56 -18 52 -33 48 -13 0
-126 -1 0
-126 27 0
-126 -62 0
-126 46 0
-126 -26 0
-126 -47 0
-126 40 0
-126 -78 0
-126 50 0
-126 35 0
126 1 -27 62 -46 26 47 -40 78 -50 -35 0
-127 17 0
-127 -49 0
-127 -57 0
-127 -66 0
-127 -34 0
-127 7 0
-127 71 0
-127 24 0
-127 -14 0
-127 55 0
127 -17 49 57 66 34 -7 -71 -24 14 -55 0
-128 -53 0
-128 -28 0
-128 -45 0
-128 -56 0
-128 -41 0
-128 -47 0
-128 -62 0
-128 57 0
-128 37 0
-128 80 0
128 53 28 45 56 41 47 62 -57 -37 -80 0
-129 -45 0
-129 -52 0
-129 20 0
-129 -83 0
-129 -77 0
-129 80 0
-129 -89 0
-129 -7 0
-129 44 0
-129 -76 0
129 45 52 -20 83 77 -80 89 7 -44 76 0
-130 57 0
-130 66 0
-130 31 0
-130 83 0
-130 14 0
-130 30 0
-130 41 0
-130 -48 0
-130 -80 0
-130 63 0
130 -57 -66 -31 -83 -14 -30 -41 48 80 -63 0
121 122 123 124 125 126 127 128 129 130 0
-131 95 0
-131 6 0
-131 -40 0
-131 46 0
-131 -99 0
-131 92 0
-131 90 0
-131 61 0
-131 -18 0
-131 52 0
131 -95 -6 40 -46 99 -92 -90 -61 18 -52 0
-132 95 0
-132 -62 0
-132 -76 0
-132 52 0
-132 73 0
-132 14 0
-132 -18 0
-132 -36 0
-132 49 0
-132 39 0
132 -95 62 76 -52 -73 -14 18 36 -49 -39 0
-133 51 0
-133 41 0
-133 -23 0
-133 -86 0
-133 -92 0
-133 20 0
-133 98 0
-133 54 0
-133 -69 0
-133 -61 0
133 -51 -41 23 86 92 -20 -98 -54 69 61 0
-134 6 0
-134 59 0
-134 -68 0
-134 -14 0
-134 22 0
-134 -2 0
-134 78 0
-134 71 0
-134 18 0
-134 30 0
134 -6 -59 68 14 -22 2 -78 -71 -18 -30 0
-135 -46 0
-135 -65 0
-135 71 0
-135 -66 0
-135 -11 0
-135 -33 0
-135 35 0
-135 75 0
-135 31 0
-135 -28 0
135 46 65 -71 66 11 33 -35 -75 -31 28 0
-136 -36 0
-136 11 0
-136 80 0
-136 42 0
-136 -94 0
-136 -93 0
-136 -92 0
-136 -73 0
-136 -91 0
-136 90 0
136 36 -11 -80 -42 94 93 92 73 91 -90 0
-137 30 0
-137 -92 0
-137 96 0
-137 91 0
-137 24 0
-137 -94 0
-137 10 0
-137 76 0
-137 1 0
-137 6 0
137 -30 92 -96 -91 -24 94 -10 -76 -1 -6 0
-138 43 0
-138 8 0
-138 49 0
-138 67 0
-138 81 0
-138 23 0
-138 -90 0
-138 3 0
-138 -15 0
-138 -98 0
138 -43 -8 -49 -67 -81 -23 90 -3 15 98 0
-139 -91 0
-139 49 0
-139 -37 0
-139 -23 0
-139 -8 0
-139 -20 0
-139 -38 0
-139 31 0
-139 51 0
-139 -95 0
139 91 -49 37 23 8 20 38 -31 -51 95 0
-140 -57 0
-140 -37 0
-140 98 0
-140 36 0
-140 27 0
-140 -18 0
-140 -60 0
-140 91 0
-140 64 0
-140 21 0
140 57 37 -98 -36 -27 18 60 -91 -64 -21 0
131 132 133 134 135 136 137 138 139 140 0
-141 -87 0
-141 -57 0
-141 -50 0
-141 -20 0
-141 -11 0
-141 -8 0
-141 72 0
-141 -59 0
-141 -51 0
-141 -90 0
141 87 57 50 20 11 8 -72 59 51 90 0
-142 2 0
-142 85 0
-142 42 0
-142 -1 0
-142 -97 0
-142 29 0
-142 -14 0
-142 -40 0
-142 59 0
-142 63 0
142 -2 -85 -42 1 97 -29 14 40 -59 -63 0
-143 -81 0
-143 -32 0
-143 -23 0
-143 -52 0
-143 28 0
-143 -11 0
-143 9 0
-143 -87 0
-143 -80 0
-143 49 0
143 81 32 23 52 -28 11 -9 87 80 -49 0
-144 97 0
-144 -99 0
-144 -18 0
-144 -7 0
-144 36 0
-144 -53 0
-144 -49 0
-144 -78 0
-144 64 0
-144 93 0
144 -97 99 18 7 -36 53 49 78 -64 -93 0
-145 -81 0
-145 -62 0
-145 -22 0
-145 73 0
-145 -87 0
-145 -9 0
-145 64 0
-145 -95 0
-145 12 0
-145 59 0
145 81 62 22 -73 87 9 -64 95 -12 -59 0
-146 6 0
-146 -45 0
-146 -19 0
-146 -61 0
-146 -22 0
-146 -81 0
-146 -70 0
-146 60 0
-146 58 0
-146 -28 0
146 -6 45 19 61 22 81 70 -60 -58 28 0
-147 7 0
-147 -100 0
-147 50 0
-147 48 0
-147 -5 0
-147 79 0
-147 -17 0
-147 -40 0
-147 -45 0
-147 -65 0
147 -7 100 -50 -48 5 -79 17 40 45 65 0
-148 -94 0
-148 -45 0
-148 -99 0
-148 -55 0
-148 -52 0
-148 -32 0
-148 92 0
-148 -2 0
-148 -84 0
-148 60 0
148 94 45 99 55 52 32 -92 2 84 -60 0
-149 11 0
-149 47 0
-149 -55 0
-149 -86 0
-149 14 0
-149 -98 0
-149 -71 0
-149 52 0
-149 -99 0
-149 -85 0
149 -11 -47 55 86 -14 98 71 -52 99 85 0
-150 -17 0
-150 -21 0
-150 62 0
-150 75 0
-150 37 0
-150 44 0
-150 -91 0
-150 95 0
-150 -46 0
-150 26 0
150 17 21 -62 -75 -37 -44 91 -95 46 -26 0
141 142 143 144 145 146 147 148 149 150 0
-151 -44 0
-151 23 0
-151 -30 0
-151 -36 0
-151 15 0
-151 -61 0
-151 43 0
-151 93 0
-151 27 0
-151 -68 0
151 44 -23 30 36 -15 61 -43 -93 -27 68 0
-152 -18 0
-152 -96 0
-152 -4 0
-152 95 0
-152 69 0
-152 86 0
-152 -55 0
-152 -50 0
-152 -100 0
-152 -27 0
152 18 96 4 -95 -69 -86 55 50 100 27 0
-153 63 0
-153 -14 0
-153 -18 0
-153 70 0
-153 50 0
-153 39 0
-153 19 0
-153 -87 0
-153 59 0
-153 90 0
153 -63 14 18 -70 -50 -39 -19 87 -59 -90 0
-154 58 0
-154 -82 0
-154 19 0
-154 13 0
-154 70 0
-154 -59 0
-154 -61 0
-154 -75 0
-154 30 0
-154 -37 0
154 -58 82 -19 -13 -70 59 61 75 -30 37 0
-155 68 0
-155 -94 0
-155 30 0
-155 -21 0
-155 42 0
-155 95 0
-155 69 0
-155 98 0
-155 12 0
-155 50 0
155 -68 94 -30 21 -42 -95 -69 -98 -12 -50 0
-156 15 0
-156 17 0
-156 58 0
-156 13 0
-156 -82 0
-156 -84 0
-156 65 0
-156 55 0
-156 -66 0
-156 20 0
156 -15 -17 -58 -13 82 84 -65 -55 66 -20 0
-157 -64 0
-157 87 0
-157 -63 0
-157 -3 0
-157 18 0
-157 -19 0
-157 51 0
-157 80 0
-157 -12 0
-157 47 0
157 64 -87 63 3 -18 19 -51 -80 12 -47 0
-158 10 0
-158 49 0
-158 -65 0
-158 -69 0
-158 100 0
-158 85 0
-158 -15 0
-158 68 0
-158 75 0
-158 17 0
158 -10 -49 65 69 -100 -85 15 -68 -75 -17 0
-159 33 0
-159 -95 0
-159 11 0
-159 -97 0
-159 -80 0
-159 1 0
-159 91 0
-159 -68 0
-159 4 0
-159 -32 0
159 -33 95 -11 97 80 -1 -91 68 -4 32 0
-160 27 0
-160 -71 0
-160 2 0
-160 68 0
-160 -33 0
-160 24 0
-160 93 0
-160 19 0
-160 54 0
-160 -12 0
160 -27 71 -2 -68 33 -24 -93 -19 -54 12 0
151 152 153 154 155 156 157 158 159 160 0
-161 -42 0
-161 -58 0
-161 94 0
-161 8 0
-161 -77 0
-161 -61 0
-161 -74 0
-161 18 0
-161 32 0
-161 -26 0
161 42 58 -94 -8 77 61 74 -18 -32 26 0
-162 -8 0
-162 10 0
-162 47 0
-162 -95 0
-162 84 0
-162 -77 0
-162 90 0
-162 -27 0
-162 -36 0
-162 34 0
162 8 -10 -47 95 -84 77 -90 27 36 -34 0
-163 -2 0
-163 -47 0
-163 -98 0
-163 -6 0
-163 -67 0
-163 -25 0
-163 -85 0
-163 58 0
-163 -57 0
-163 -9 0
163 2 47 98 6 67 25 85 -58 57 9 0
-164 -4 0
-164 10 0
-164 33 0
-164 16 0
-164 -44 0
-164 51 0
-164 87 0
-164 52 0
-164 91 0
-164 -94 0
164 4 -10 -33 -16 44 -51 -87 -52 -91 94 0
-165 -82 0
-165 -67 0
-165 -53 0
-165 -33 0
-165 49 0
-165 16 0
-165 64 0
-165 86 0
-165 66 0
-165 7 0
165 82 67 53 33 -49 -16 -64 -86 -66 -7 0
-166 50 0
-166 -67 0
-166 -91 0
-166 -62 0
-166 -19 0
-166 -14 0
-166 -79 0
-166 64 0
-166 29 0
-166 -85 0
166 -50 67 91 62 19 14 79 -64 -29 85 0
-167 -35 0
-167 83 0
-167 -69 0
-167 61 0
-167 -55 0
-167 -75 0
-167 -37 0
-167 -32 0
-167 12 0
-167 54 0
167 35 -83 69 -61 55 75 37 32 -12 -54 0
-168 53 0
-168 68 0
-168 -45 0
-168 16 0
-168 -84 0
-168 -66 0
-168 71 0
-168 10 0
-168 -18 0
-168 -22 0
168 -53 -68 45 -16 84 66 -71 -10 18 22 0
-169 -2 0
-169 -80 0
-169 -13 0
-169 36 0
-169 12 0
-169 37 0
-169 34 0
-169 26 0
-169 75 0
-169 23 0
169 2 80 13 -36 -12 -37 -34 -26 -75 -23 0
-170 70 0
-170 34 0
-170 13 0
-170 -33 0
-170 80 0
-170 -66 0
-170 -21 0
-170 -63 0
-170 -7 0
-170 -59 0
170 -70 -34 -13 33 -80 66 21 63 7 59 0
161 162 163 164 165 166 167 168 169 170 0
-171 -47 0
-171 90 0
-171 -16 0
-171 29 0
-171 68 0
-171 100 0
-171 -66 0
-171 -63 0
-171 80 0
-171 67 0
171 47 -90 16 -29 -68 -100 66 63 -80 -67 0
-172 -7 0
-172 -88 0
-172 -66 0
-172 82 0
-172 -67 0
-172 93 0
-172 52 0
-172 36 0
-172 -98 0
-172 46 0
172 7 88 66 -82 67 -93 -52 -36 98 -46 0
-173 -24 0
-173 84 0
-173 31 0
-173 -18 0
-173 -85 0
-173 72 0
-173 -53 0
-173 37 0
-173 50 0
-173 41 0
173 24 -84 -31 18 85 -72 53 -37 -50 -41 0
-174 79 0
-174 48 0
-174 -47 0
-174 26 0
-174 -45 0
-174 9 0
-174 60 0
-174 58 0
-174 -18 0
-174 -53 0
174 -79 -48 47 -26 45 -9 -60 -58 18 53 0
-175 -79 0
-175 60 0
-175 -93 0
-175 -15 0
-175 90 0
-175 -26 0
-175 2 0
-175 -44 0
-175 76 0
-175 37 0
175 79 -60 93 15 -90 26 -2 44 -76 -37 0
-176 52 0
-176 -46 0
-176 23 0
-176 64 0
-176 90 0
-176 71 0
-176 -16 0
-176 39 0
-176 96 0
-176 6 0
176 -52 46 -23 -64 -90 -71 16 -39 -96 -6 0
-177 20 0
-177 -71 0
-177 21 0
-177 62 0
-177 -27 0
-177 88 0
-177 96 0
-177 -59 0
-177 48 0
-177 -44 0
177 -20 71 -21 -62 27 -88 -96 59 -48 44 0
-178 -40 0
-178 -38 0
-178 53 0
-178 51 0
-178 73 0
-178 45 0
-178 -2 0
-178 -63 0
-178 91 0
-178 61 0
178 40 38 -53 -51 -73 -45 2 63 -91 -61 0
-179 -35 0
-179 23 0
-179 -31 0
-179 98 0
-179 88 0
-179 -29 0
-179 -59 0
-179 -75 0
-179 -27 0
-179 77 0
179 35 -23 31 -98 -88 29 59 75 27 -77 0
-180 -49 0
-180 25 0
-180 -9 0
-180 6 0
-180 -24 0
-180 -66 0
-180 -82 0
-180 -78 0
-180 -40 0
-180 -52 0
180 49 -25 9 -6 24 66 82 78 40 52 0
171 172 173 174 175 176 177 178 179 180 0
-181 47 0
-181 2 0
-181 -18 0
-181 95 0
-181 29 0
-181 -10 0
-181 -46 0
-181 44 0
-181 88 0
-181 -86 0
181 -47 -2 18 -95 -29 10 46 -44 -88 86 0
-182 96 0
-182 4 0
-182 91 0
-182 -24 0
-182 50 0
-182 -37 0
-182 -7 0
-182 20 0
-182 41 0
-182 -74 0
182 -96 -4 -91 24 -50 37 7 -20 -41 74 0
-183 -32 0
-183 -76 0
-183 90 0
-183 20 0
-183 -34 0
-183 -44 0
-183 56 0
-183 -89 0
-183 -25 0
-183 61 0
183 32 76 -90 -20 34 44 -56 89 25 -61 0
-184 -45 0
-184 -74 0
-184 -91 0
-184 -59 0
-184 26 0
-184 -10 0
-184 -3 0
-184 -14 0
-184 86 0
-184 77 0
184 45 74 91 59 -26 10 3 14 -86 -77 0
-185 -21 0
-185 -50 0
-185 11 0
-185 24 0
-185 91 0
-185 -52 0
-185 34 0
-185 42 0
-185 87 0
-185 -25 0
185 21 50 -11 -24 -91 52 -34 -42 -87 25 0
-186 -14 0
-186 26 0
-186 -75 0
-186 -42 0
-186 25 0
-186 -57 0
-186 39 0
-186 -20 0
-186 -3 0
-186 78 0
186 14 -26 75 42 -25 57 -39 20 3 -78 0
-187 -51 0
-187 11 0
-187 -53 0
-187 -94 0
-187 -43 0
-187 17 0
-187 -39 0
-187 87 0
-187 -64 0
-187 -74 0
187 51 -11 53 94 43 -17 39 -87 64 74 0
-188 56 0
-188 -98 0
-188 -10 0
-188 51 0
-188 -52 0
-188 -3 0
-188 -78 0
-188 48 0
-188 92 0
-188 -57 0
188 -56 98 10 -51 52 3 78 -48 -92 57 0
-189 39 0
-189 -67 0
-189 28 0
-189 -60 0
-189 -70 0
-189 -56 0
-189 22 0
-189 -97 0
-189 72 0
-189 33 0
189 -39 67 -28 60 70 56 -22 97 -72 -33 0
-190 89 0
-190 -2 0
-190 -28 0
-190 -30 0
-190 82 0
-190 16 0
-190 -83 0
-190 -75 0
-190 58 0
-190 18 0
190 -89 2 28 30 -82 -16 83 75 -58 -18 0
181 182 183 184 185 186 187 188 189 190 0
-191 -9 0
-191 -78 0
-191 92 0
-191 90 0
-191 -11 0
-191 -60 0
-191 67 0
-191 -66 0
-191 -84 0
-191 16 0
191 9 78 -92 -90 11 60 -67 66 84 -16 0
-192 -79 0
-192 -52 0
-192 -42 0
-192 51 0
-192 50 0
-192 54 0
-192 -27 0
-192 -85 0
-192 13 0
-192 21 0
192 79 52 42 -51 -50 -54 27 85 -13 -21 0
-193 98 0
-193 8 0
-193 -72 0
-193 60 0
-193 37 0
-193 28 0
-193 18 0
-193 55 0
-193 90 0
-193 31 0
193 -98 -8 72 -60 -37 -28 -18 -55 -90 -31 0
-194 44 0
-194 62 0
-194 8 0
-194 25 0
-194 3 0
-194 -52 0
-194 28 0
-194 18 0
-194 -84 0
-194 -30 0
194 -44 -62 -8 -25 -3 52 -28 -18 84 30 0
-195 -31 0
-195 52 0
-195 -28 0
-195 63 0
-195 -48 0
-195 -80 0
-195 -94 0
-195 -19 0
-195 -56 0
-195 54 0
195 31 -52 28 -63 48 80 94 19 56 -54 0
-196 58 0
-196 3 0
-196 31 0
-196 -39 0
-196 -14 0
-196 -25 0
-196 -9 0
-196 -15 0
-196 -38 0
-196 -5 0
196 -58 -3 -31 39 14 25 9 15 38 5 0
-197 60 0
-197 13 0
-197 -49 0
-197 -28 0
-197 -66 0
-197 36 0
-197 23 0
-197 21 0
-197 -97 0
-197 89 0
197 -60 -13 49 28 66 -36 -23 -21 97 -89 0
-198 -66 0
-198 -24 0
-198 -37 0
-198 -97 0
-198 11 0
-198 -81 0
-198 -26 0
-198 -94 0
-198 20 0
-198 15 0
198 66 24 37 97 -11 81 26 94 -20 -15 0
-199 -88 0
-199 -11 0
-199 65 0
-199 15 0
-199 -20 0
-199 74 0
-199 -9 0
-199 -60 0
-199 -1 0
-199 -98 0
199 88 11 -65 -15 20 -74 9 60 1 98 0
-200 -32 0
-200 86 0
-200 -10 0
-200 -7 0
-200 -12 0
-200 -61 0
-200 76 0
-200 51 0
-200 -1 0
-200 -93 0
200 32 -86 10 7 12 61 -76 -51 1 93 0
191 192 193 194 195 196 197 198 199 200 0
